120
1000
200
198
198
198
198
197
197
196
196
196
196
194
193
192
192
192
191
191
191
191
190
190
189
189
189
188
188
188
187
186
186
186
186
185
184
184
184
184
184
184
183
183
183
183
183
183
183
182
182
181
181
181
180
180
179
179
179
179
178
178
177
176
176
175
175
175
174
174
173
173
172
172
171
171
171
170
169
168
168
167
167
166
166
165
165
164
164
164
163
163
163
163
162
160
160
160
160
160
158
158
158
157
157
156
156
156
155
154
154
154
154
153
153
153
152
152
151
150
150
150
